p edge 100 495
e 1 4
e 1 11
e 1 26
e 1 32
e 1 63
e 1 68
e 1 79
e 1 85
e 1 87
e 1 92
e 1 96
e 2 10
e 2 11
e 2 23
e 2 37
e 2 46
e 2 55
e 2 62
e 2 63
e 2 85
e 2 100
e 3 17
e 3 18
e 3 19
e 3 32
e 3 40
e 3 46
e 3 64
e 3 80
e 3 83
e 3 85
e 3 90
e 3 97
e 4 5
e 4 10
e 4 37
e 4 58
e 5 11
e 5 12
e 5 18
e 5 28
e 5 31
e 5 52
e 5 56
e 5 65
e 5 83
e 5 84
e 6 14
e 6 17
e 6 28
e 6 31
e 6 32
e 6 34
e 6 56
e 6 66
e 6 68
e 6 70
e 6 75
e 6 85
e 6 88
e 6 91
e 6 99
e 7 23
e 7 24
e 7 35
e 7 40
e 7 42
e 7 43
e 7 56
e 7 81
e 8 39
e 8 42
e 8 46
e 8 58
e 8 90
e 8 97
e 8 98
e 9 10
e 9 31
e 9 36
e 9 53
e 9 55
e 9 60
e 9 77
e 9 84
e 9 91
e 9 95
e 10 11
e 10 17
e 10 25
e 10 26
e 10 49
e 10 77
e 10 80
e 10 81
e 10 89
e 11 12
e 11 47
e 11 60
e 11 63
e 11 68
e 11 71
e 11 85
e 11 86
e 11 92
e 12 13
e 12 25
e 12 55
e 12 61
e 12 71
e 12 93
e 12 94
e 12 95
e 13 24
e 13 38
e 13 52
e 13 66
e 13 68
e 13 73
e 13 84
e 13 86
e 14 35
e 14 44
e 14 61
e 14 84
e 15 17
e 15 19
e 15 20
e 15 37
e 15 45
e 15 64
e 15 73
e 15 78
e 15 92
e 15 93
e 16 17
e 16 28
e 16 42
e 16 52
e 16 60
e 16 65
e 16 75
e 16 78
e 16 88
e 16 90
e 17 19
e 17 25
e 17 44
e 17 74
e 17 91
e 18 20
e 18 34
e 18 47
e 18 51
e 18 68
e 18 73
e 18 76
e 18 99
e 19 30
e 19 35
e 19 43
e 19 48
e 19 50
e 19 64
e 19 85
e 19 86
e 19 92
e 20 29
e 20 30
e 20 31
e 20 41
e 20 47
e 20 57
e 20 68
e 20 74
e 20 75
e 20 82
e 20 83
e 20 89
e 21 31
e 21 36
e 21 40
e 21 47
e 21 49
e 21 69
e 21 70
e 21 77
e 22 23
e 22 29
e 22 38
e 22 56
e 22 61
e 22 64
e 22 65
e 22 78
e 22 82
e 22 84
e 23 28
e 23 32
e 23 34
e 23 38
e 23 49
e 23 53
e 23 60
e 23 65
e 23 97
e 23 99
e 23 100
e 24 28
e 24 33
e 24 49
e 24 51
e 24 61
e 24 74
e 24 94
e 25 26
e 25 28
e 25 35
e 25 41
e 25 50
e 25 57
e 25 64
e 25 70
e 25 72
e 25 83
e 25 96
e 25 99
e 26 30
e 26 32
e 26 48
e 26 49
e 26 50
e 26 57
e 26 58
e 26 62
e 26 68
e 26 76
e 26 78
e 26 82
e 26 85
e 26 97
e 26 99
e 27 51
e 27 56
e 27 62
e 27 65
e 27 82
e 27 94
e 28 45
e 28 68
e 28 83
e 28 94
e 29 41
e 29 52
e 29 53
e 29 59
e 29 66
e 29 69
e 29 80
e 29 99
e 30 32
e 30 43
e 30 48
e 30 67
e 30 78
e 30 83
e 30 95
e 30 97
e 31 36
e 31 47
e 31 56
e 31 71
e 31 85
e 31 89
e 32 44
e 32 55
e 32 57
e 33 39
e 33 43
e 33 48
e 33 55
e 33 56
e 33 75
e 33 94
e 34 36
e 34 40
e 34 70
e 34 77
e 34 91
e 34 99
e 35 41
e 35 44
e 35 46
e 35 63
e 35 68
e 35 75
e 35 79
e 35 81
e 35 84
e 35 96
e 36 42
e 36 46
e 36 71
e 36 72
e 36 73
e 36 78
e 36 82
e 36 91
e 37 52
e 37 72
e 37 96
e 38 46
e 38 61
e 38 87
e 38 93
e 39 40
e 39 53
e 39 54
e 39 64
e 39 79
e 39 81
e 40 48
e 40 57
e 40 59
e 40 62
e 40 71
e 40 85
e 41 68
e 41 70
e 41 73
e 41 91
e 41 98
e 42 47
e 42 54
e 42 80
e 42 86
e 43 46
e 43 89
e 43 94
e 43 95
e 44 45
e 44 60
e 44 83
e 44 100
e 45 47
e 45 48
e 45 50
e 46 58
e 46 59
e 46 65
e 46 73
e 46 79
e 46 95
e 46 97
e 47 48
e 47 54
e 47 93
e 47 94
e 48 53
e 48 75
e 48 76
e 48 94
e 48 97
e 49 53
e 49 62
e 49 63
e 49 66
e 49 80
e 50 56
e 50 59
e 50 72
e 50 95
e 51 53
e 51 57
e 51 60
e 51 69
e 51 77
e 51 82
e 51 83
e 52 56
e 52 95
e 53 86
e 53 92
e 53 94
e 53 96
e 54 59
e 54 87
e 55 56
e 55 73
e 55 74
e 55 75
e 55 76
e 55 82
e 55 86
e 55 90
e 55 95
e 56 59
e 56 79
e 56 88
e 56 89
e 57 63
e 57 66
e 57 75
e 58 78
e 58 80
e 58 98
e 59 61
e 60 65
e 60 67
e 60 68
e 60 69
e 60 74
e 60 89
e 61 65
e 61 78
e 61 83
e 61 85
e 61 92
e 61 98
e 61 99
e 61 100
e 62 73
e 62 78
e 62 84
e 62 85
e 62 89
e 62 99
e 63 97
e 63 98
e 64 65
e 64 67
e 64 72
e 64 77
e 65 70
e 65 74
e 65 85
e 65 88
e 65 90
e 66 74
e 66 75
e 67 75
e 67 84
e 67 89
e 67 90
e 67 95
e 67 98
e 68 71
e 68 79
e 68 88
e 69 78
e 69 81
e 70 76
e 70 93
e 70 99
e 71 77
e 71 84
e 71 85
e 71 97
e 72 99
e 73 83
e 73 85
e 74 76
e 74 83
e 74 84
e 74 86
e 75 83
e 75 85
e 75 91
e 76 77
e 76 78
e 76 90
e 76 95
e 77 92
e 77 94
e 78 79
e 78 90
e 79 88
e 80 90
e 81 91
e 81 93
e 82 90
e 84 90
e 84 96
e 85 100
e 86 94
e 86 96
e 88 95
e 88 97
e 89 93
e 90 98
e 92 95
e 93 97
e 94 95
e 94 100
e 96 97
